/*********************************************
 * OPL 12.6.0.0 Data
 * Author: Adrian Rodriguez Bazaga, Pau Rodriguez Esmerats
 * Creation Date: 09/12/2017 at 00:43:59
 *********************************************/

maxConsec=14;
maxPresence=18;
maxHours=11;
minHours=6;
hours=20;
demand= [13 15 15 13 15 12 15 15 15 13 14 11 12 8 5 1 2 0 1 0  ];
nNurses=21;
